InstanciasPAB/instancia.demur.15.40.2A.txt
N 15
M 40
K Alumina Bauxita Manganes Ferro ;
L 2
v
1 5
2 4
d
1 500
2 1000
3 500
4 1000
5 500
6 1000
7 500
8 1000
9 500
10 1000
11 500
12 1000
13 500
14 1000
15 500
a
1 1
2 2
3 4
4 5
5 7
6 7
7 9
8 10
9 11
10 13
11 13
12 14
13 16
14 17
15 18
e
Bauxita 50
Alumina 68
Manganes 56
Ferro 75
ck
Bauxita 2
Alumina 3
Manganes 3
Ferro 4
q Bauxita Alumina Manganes Ferro
1	0	0	28	0
2	0	0	0	8
3	0	0	0	29
4	0	0	23	0
5	5	0	0	0
6	5	0	0	0
7	6	0	0	0
8	0	13	0	0
9	0	25	0	0
10	0	0	0	23
11	0	29	0	0
12	16	0	0	0
13	0	0	0	35
14	0	0	13	0
15	20	0	0	0
